\ Model _copy
\ LP format - for model browsing. Use MPS format to capture full model detail.
\ Signature: 0x6f5543aa9a168578
Maximize
 
Subject To
 R151: - alpha_1 <= 1
 R152: alpha_2 <= 1
 R154: alpha_3 <= 1
 R157: - alpha_4 <= 1
 R232: 0.00762985 alpha_1 - 0.00400815 alpha_2 - 0.0072074 alpha_3
   + 0.00360995 alpha_4 <= -0.0758392443408966
Bounds
 alpha_1 free
 alpha_2 free
 alpha_3 free
 alpha_4 free
End
